c Hopefully unsat graph coloring CNF
c Trying to color graph queen6_6 with 6 colors.
c Variable (n*colors)+k tries to color node n by color k
c so variable 1 is the first node colored by the first color
c signifying nodes start at 0 and colors at 1
p cnf 216 3516
1 2 3 4 5 6 0
7 8 9 10 11 12 0
13 14 15 16 17 18 0
19 20 21 22 23 24 0
25 26 27 28 29 30 0
31 32 33 34 35 36 0
37 38 39 40 41 42 0
43 44 45 46 47 48 0
49 50 51 52 53 54 0
55 56 57 58 59 60 0
61 62 63 64 65 66 0
67 68 69 70 71 72 0
73 74 75 76 77 78 0
79 80 81 82 83 84 0
85 86 87 88 89 90 0
91 92 93 94 95 96 0
97 98 99 100 101 102 0
103 104 105 106 107 108 0
109 110 111 112 113 114 0
115 116 117 118 119 120 0
121 122 123 124 125 126 0
127 128 129 130 131 132 0
133 134 135 136 137 138 0
139 140 141 142 143 144 0
145 146 147 148 149 150 0
151 152 153 154 155 156 0
157 158 159 160 161 162 0
163 164 165 166 167 168 0
169 170 171 172 173 174 0
175 176 177 178 179 180 0
181 182 183 184 185 186 0
187 188 189 190 191 192 0
193 194 195 196 197 198 0
199 200 201 202 203 204 0
205 206 207 208 209 210 0
211 212 213 214 215 216 0
-1 -43 0
-2 -44 0
-3 -45 0
-4 -46 0
-5 -47 0
-6 -48 0
-1 -85 0
-2 -86 0
-3 -87 0
-4 -88 0
-5 -89 0
-6 -90 0
-1 -127 0
-2 -128 0
-3 -129 0
-4 -130 0
-5 -131 0
-6 -132 0
-1 -169 0
-2 -170 0
-3 -171 0
-4 -172 0
-5 -173 0
-6 -174 0
-1 -211 0
-2 -212 0
-3 -213 0
-4 -214 0
-5 -215 0
-6 -216 0
-1 -7 0
-2 -8 0
-3 -9 0
-4 -10 0
-5 -11 0
-6 -12 0
-1 -13 0
-2 -14 0
-3 -15 0
-4 -16 0
-5 -17 0
-6 -18 0
-1 -19 0
-2 -20 0
-3 -21 0
-4 -22 0
-5 -23 0
-6 -24 0
-1 -25 0
-2 -26 0
-3 -27 0
-4 -28 0
-5 -29 0
-6 -30 0
-1 -31 0
-2 -32 0
-3 -33 0
-4 -34 0
-5 -35 0
-6 -36 0
-1 -37 0
-2 -38 0
-3 -39 0
-4 -40 0
-5 -41 0
-6 -42 0
-1 -73 0
-2 -74 0
-3 -75 0
-4 -76 0
-5 -77 0
-6 -78 0
-1 -109 0
-2 -110 0
-3 -111 0
-4 -112 0
-5 -113 0
-6 -114 0
-1 -145 0
-2 -146 0
-3 -147 0
-4 -148 0
-5 -149 0
-6 -150 0
-1 -181 0
-2 -182 0
-3 -183 0
-4 -184 0
-5 -185 0
-6 -186 0
-7 -49 0
-8 -50 0
-9 -51 0
-10 -52 0
-11 -53 0
-12 -54 0
-7 -91 0
-8 -92 0
-9 -93 0
-10 -94 0
-11 -95 0
-12 -96 0
-7 -133 0
-8 -134 0
-9 -135 0
-10 -136 0
-11 -137 0
-12 -138 0
-7 -175 0
-8 -176 0
-9 -177 0
-10 -178 0
-11 -179 0
-12 -180 0
-7 -37 0
-8 -38 0
-9 -39 0
-10 -40 0
-11 -41 0
-12 -42 0
-7 -13 0
-8 -14 0
-9 -15 0
-10 -16 0
-11 -17 0
-12 -18 0
-7 -19 0
-8 -20 0
-9 -21 0
-10 -22 0
-11 -23 0
-12 -24 0
-7 -25 0
-8 -26 0
-9 -27 0
-10 -28 0
-11 -29 0
-12 -30 0
-7 -31 0
-8 -32 0
-9 -33 0
-10 -34 0
-11 -35 0
-12 -36 0
-7 -43 0
-8 -44 0
-9 -45 0
-10 -46 0
-11 -47 0
-12 -48 0
-7 -79 0
-8 -80 0
-9 -81 0
-10 -82 0
-11 -83 0
-12 -84 0
-7 -115 0
-8 -116 0
-9 -117 0
-10 -118 0
-11 -119 0
-12 -120 0
-7 -151 0
-8 -152 0
-9 -153 0
-10 -154 0
-11 -155 0
-12 -156 0
-7 -187 0
-8 -188 0
-9 -189 0
-10 -190 0
-11 -191 0
-12 -192 0
-7 -1 0
-8 -2 0
-9 -3 0
-10 -4 0
-11 -5 0
-12 -6 0
-13 -55 0
-14 -56 0
-15 -57 0
-16 -58 0
-17 -59 0
-18 -60 0
-13 -97 0
-14 -98 0
-15 -99 0
-16 -100 0
-17 -101 0
-18 -102 0
-13 -139 0
-14 -140 0
-15 -141 0
-16 -142 0
-17 -143 0
-18 -144 0
-13 -43 0
-14 -44 0
-15 -45 0
-16 -46 0
-17 -47 0
-18 -48 0
-13 -73 0
-14 -74 0
-15 -75 0
-16 -76 0
-17 -77 0
-18 -78 0
-13 -19 0
-14 -20 0
-15 -21 0
-16 -22 0
-17 -23 0
-18 -24 0
-13 -25 0
-14 -26 0
-15 -27 0
-16 -28 0
-17 -29 0
-18 -30 0
-13 -31 0
-14 -32 0
-15 -33 0
-16 -34 0
-17 -35 0
-18 -36 0
-13 -49 0
-14 -50 0
-15 -51 0
-16 -52 0
-17 -53 0
-18 -54 0
-13 -85 0
-14 -86 0
-15 -87 0
-16 -88 0
-17 -89 0
-18 -90 0
-13 -121 0
-14 -122 0
-15 -123 0
-16 -124 0
-17 -125 0
-18 -126 0
-13 -157 0
-14 -158 0
-15 -159 0
-16 -160 0
-17 -161 0
-18 -162 0
-13 -193 0
-14 -194 0
-15 -195 0
-16 -196 0
-17 -197 0
-18 -198 0
-13 -7 0
-14 -8 0
-15 -9 0
-16 -10 0
-17 -11 0
-18 -12 0
-13 -1 0
-14 -2 0
-15 -3 0
-16 -4 0
-17 -5 0
-18 -6 0
-19 -61 0
-20 -62 0
-21 -63 0
-22 -64 0
-23 -65 0
-24 -66 0
-19 -103 0
-20 -104 0
-21 -105 0
-22 -106 0
-23 -107 0
-24 -108 0
-19 -49 0
-20 -50 0
-21 -51 0
-22 -52 0
-23 -53 0
-24 -54 0
-19 -79 0
-20 -80 0
-21 -81 0
-22 -82 0
-23 -83 0
-24 -84 0
-19 -109 0
-20 -110 0
-21 -111 0
-22 -112 0
-23 -113 0
-24 -114 0
-19 -25 0
-20 -26 0
-21 -27 0
-22 -28 0
-23 -29 0
-24 -30 0
-19 -31 0
-20 -32 0
-21 -33 0
-22 -34 0
-23 -35 0
-24 -36 0
-19 -55 0
-20 -56 0
-21 -57 0
-22 -58 0
-23 -59 0
-24 -60 0
-19 -91 0
-20 -92 0
-21 -93 0
-22 -94 0
-23 -95 0
-24 -96 0
-19 -127 0
-20 -128 0
-21 -129 0
-22 -130 0
-23 -131 0
-24 -132 0
-19 -163 0
-20 -164 0
-21 -165 0
-22 -166 0
-23 -167 0
-24 -168 0
-19 -199 0
-20 -200 0
-21 -201 0
-22 -202 0
-23 -203 0
-24 -204 0
-19 -13 0
-20 -14 0
-21 -15 0
-22 -16 0
-23 -17 0
-24 -18 0
-19 -7 0
-20 -8 0
-21 -9 0
-22 -10 0
-23 -11 0
-24 -12 0
-19 -1 0
-20 -2 0
-21 -3 0
-22 -4 0
-23 -5 0
-24 -6 0
-25 -67 0
-26 -68 0
-27 -69 0
-28 -70 0
-29 -71 0
-30 -72 0
-25 -55 0
-26 -56 0
-27 -57 0
-28 -58 0
-29 -59 0
-30 -60 0
-25 -85 0
-26 -86 0
-27 -87 0
-28 -88 0
-29 -89 0
-30 -90 0
-25 -115 0
-26 -116 0
-27 -117 0
-28 -118 0
-29 -119 0
-30 -120 0
-25 -145 0
-26 -146 0
-27 -147 0
-28 -148 0
-29 -149 0
-30 -150 0
-25 -31 0
-26 -32 0
-27 -33 0
-28 -34 0
-29 -35 0
-30 -36 0
-25 -61 0
-26 -62 0
-27 -63 0
-28 -64 0
-29 -65 0
-30 -66 0
-25 -97 0
-26 -98 0
-27 -99 0
-28 -100 0
-29 -101 0
-30 -102 0
-25 -133 0
-26 -134 0
-27 -135 0
-28 -136 0
-29 -137 0
-30 -138 0
-25 -169 0
-26 -170 0
-27 -171 0
-28 -172 0
-29 -173 0
-30 -174 0
-25 -205 0
-26 -206 0
-27 -207 0
-28 -208 0
-29 -209 0
-30 -210 0
-25 -19 0
-26 -20 0
-27 -21 0
-28 -22 0
-29 -23 0
-30 -24 0
-25 -13 0
-26 -14 0
-27 -15 0
-28 -16 0
-29 -17 0
-30 -18 0
-25 -7 0
-26 -8 0
-27 -9 0
-28 -10 0
-29 -11 0
-30 -12 0
-25 -1 0
-26 -2 0
-27 -3 0
-28 -4 0
-29 -5 0
-30 -6 0
-31 -61 0
-32 -62 0
-33 -63 0
-34 -64 0
-35 -65 0
-36 -66 0
-31 -91 0
-32 -92 0
-33 -93 0
-34 -94 0
-35 -95 0
-36 -96 0
-31 -121 0
-32 -122 0
-33 -123 0
-34 -124 0
-35 -125 0
-36 -126 0
-31 -151 0
-32 -152 0
-33 -153 0
-34 -154 0
-35 -155 0
-36 -156 0
-31 -181 0
-32 -182 0
-33 -183 0
-34 -184 0
-35 -185 0
-36 -186 0
-31 -67 0
-32 -68 0
-33 -69 0
-34 -70 0
-35 -71 0
-36 -72 0
-31 -103 0
-32 -104 0
-33 -105 0
-34 -106 0
-35 -107 0
-36 -108 0
-31 -139 0
-32 -140 0
-33 -141 0
-34 -142 0
-35 -143 0
-36 -144 0
-31 -175 0
-32 -176 0
-33 -177 0
-34 -178 0
-35 -179 0
-36 -180 0
-31 -211 0
-32 -212 0
-33 -213 0
-34 -214 0
-35 -215 0
-36 -216 0
-31 -25 0
-32 -26 0
-33 -27 0
-34 -28 0
-35 -29 0
-36 -30 0
-31 -19 0
-32 -20 0
-33 -21 0
-34 -22 0
-35 -23 0
-36 -24 0
-31 -13 0
-32 -14 0
-33 -15 0
-34 -16 0
-35 -17 0
-36 -18 0
-31 -7 0
-32 -8 0
-33 -9 0
-34 -10 0
-35 -11 0
-36 -12 0
-31 -1 0
-32 -2 0
-33 -3 0
-34 -4 0
-35 -5 0
-36 -6 0
-37 -79 0
-38 -80 0
-39 -81 0
-40 -82 0
-41 -83 0
-42 -84 0
-37 -121 0
-38 -122 0
-39 -123 0
-40 -124 0
-41 -125 0
-42 -126 0
-37 -163 0
-38 -164 0
-39 -165 0
-40 -166 0
-41 -167 0
-42 -168 0
-37 -205 0
-38 -206 0
-39 -207 0
-40 -208 0
-41 -209 0
-42 -210 0
-37 -43 0
-38 -44 0
-39 -45 0
-40 -46 0
-41 -47 0
-42 -48 0
-37 -49 0
-38 -50 0
-39 -51 0
-40 -52 0
-41 -53 0
-42 -54 0
-37 -55 0
-38 -56 0
-39 -57 0
-40 -58 0
-41 -59 0
-42 -60 0
-37 -61 0
-38 -62 0
-39 -63 0
-40 -64 0
-41 -65 0
-42 -66 0
-37 -67 0
-38 -68 0
-39 -69 0
-40 -70 0
-41 -71 0
-42 -72 0
-37 -73 0
-38 -74 0
-39 -75 0
-40 -76 0
-41 -77 0
-42 -78 0
-37 -109 0
-38 -110 0
-39 -111 0
-40 -112 0
-41 -113 0
-42 -114 0
-37 -145 0
-38 -146 0
-39 -147 0
-40 -148 0
-41 -149 0
-42 -150 0
-37 -181 0
-38 -182 0
-39 -183 0
-40 -184 0
-41 -185 0
-42 -186 0
-37 -7 0
-38 -8 0
-39 -9 0
-40 -10 0
-41 -11 0
-42 -12 0
-37 -1 0
-38 -2 0
-39 -3 0
-40 -4 0
-41 -5 0
-42 -6 0
-43 -85 0
-44 -86 0
-45 -87 0
-46 -88 0
-47 -89 0
-48 -90 0
-43 -127 0
-44 -128 0
-45 -129 0
-46 -130 0
-47 -131 0
-48 -132 0
-43 -169 0
-44 -170 0
-45 -171 0
-46 -172 0
-47 -173 0
-48 -174 0
-43 -211 0
-44 -212 0
-45 -213 0
-46 -214 0
-47 -215 0
-48 -216 0
-43 -73 0
-44 -74 0
-45 -75 0
-46 -76 0
-47 -77 0
-48 -78 0
-43 -49 0
-44 -50 0
-45 -51 0
-46 -52 0
-47 -53 0
-48 -54 0
-43 -55 0
-44 -56 0
-45 -57 0
-46 -58 0
-47 -59 0
-48 -60 0
-43 -61 0
-44 -62 0
-45 -63 0
-46 -64 0
-47 -65 0
-48 -66 0
-43 -67 0
-44 -68 0
-45 -69 0
-46 -70 0
-47 -71 0
-48 -72 0
-43 -79 0
-44 -80 0
-45 -81 0
-46 -82 0
-47 -83 0
-48 -84 0
-43 -115 0
-44 -116 0
-45 -117 0
-46 -118 0
-47 -119 0
-48 -120 0
-43 -151 0
-44 -152 0
-45 -153 0
-46 -154 0
-47 -155 0
-48 -156 0
-43 -187 0
-44 -188 0
-45 -189 0
-46 -190 0
-47 -191 0
-48 -192 0
-43 -37 0
-44 -38 0
-45 -39 0
-46 -40 0
-47 -41 0
-48 -42 0
-43 -13 0
-44 -14 0
-45 -15 0
-46 -16 0
-47 -17 0
-48 -18 0
-43 -7 0
-44 -8 0
-45 -9 0
-46 -10 0
-47 -11 0
-48 -12 0
-43 -1 0
-44 -2 0
-45 -3 0
-46 -4 0
-47 -5 0
-48 -6 0
-49 -91 0
-50 -92 0
-51 -93 0
-52 -94 0
-53 -95 0
-54 -96 0
-49 -133 0
-50 -134 0
-51 -135 0
-52 -136 0
-53 -137 0
-54 -138 0
-49 -175 0
-50 -176 0
-51 -177 0
-52 -178 0
-53 -179 0
-54 -180 0
-49 -79 0
-50 -80 0
-51 -81 0
-52 -82 0
-53 -83 0
-54 -84 0
-49 -109 0
-50 -110 0
-51 -111 0
-52 -112 0
-53 -113 0
-54 -114 0
-49 -55 0
-50 -56 0
-51 -57 0
-52 -58 0
-53 -59 0
-54 -60 0
-49 -61 0
-50 -62 0
-51 -63 0
-52 -64 0
-53 -65 0
-54 -66 0
-49 -67 0
-50 -68 0
-51 -69 0
-52 -70 0
-53 -71 0
-54 -72 0
-49 -85 0
-50 -86 0
-51 -87 0
-52 -88 0
-53 -89 0
-54 -90 0
-49 -121 0
-50 -122 0
-51 -123 0
-52 -124 0
-53 -125 0
-54 -126 0
-49 -157 0
-50 -158 0
-51 -159 0
-52 -160 0
-53 -161 0
-54 -162 0
-49 -193 0
-50 -194 0
-51 -195 0
-52 -196 0
-53 -197 0
-54 -198 0
-49 -43 0
-50 -44 0
-51 -45 0
-52 -46 0
-53 -47 0
-54 -48 0
-49 -37 0
-50 -38 0
-51 -39 0
-52 -40 0
-53 -41 0
-54 -42 0
-49 -19 0
-50 -20 0
-51 -21 0
-52 -22 0
-53 -23 0
-54 -24 0
-49 -13 0
-50 -14 0
-51 -15 0
-52 -16 0
-53 -17 0
-54 -18 0
-49 -7 0
-50 -8 0
-51 -9 0
-52 -10 0
-53 -11 0
-54 -12 0
-55 -97 0
-56 -98 0
-57 -99 0
-58 -100 0
-59 -101 0
-60 -102 0
-55 -139 0
-56 -140 0
-57 -141 0
-58 -142 0
-59 -143 0
-60 -144 0
-55 -85 0
-56 -86 0
-57 -87 0
-58 -88 0
-59 -89 0
-60 -90 0
-55 -115 0
-56 -116 0
-57 -117 0
-58 -118 0
-59 -119 0
-60 -120 0
-55 -145 0
-56 -146 0
-57 -147 0
-58 -148 0
-59 -149 0
-60 -150 0
-55 -61 0
-56 -62 0
-57 -63 0
-58 -64 0
-59 -65 0
-60 -66 0
-55 -67 0
-56 -68 0
-57 -69 0
-58 -70 0
-59 -71 0
-60 -72 0
-55 -91 0
-56 -92 0
-57 -93 0
-58 -94 0
-59 -95 0
-60 -96 0
-55 -127 0
-56 -128 0
-57 -129 0
-58 -130 0
-59 -131 0
-60 -132 0
-55 -163 0
-56 -164 0
-57 -165 0
-58 -166 0
-59 -167 0
-60 -168 0
-55 -199 0
-56 -200 0
-57 -201 0
-58 -202 0
-59 -203 0
-60 -204 0
-55 -49 0
-56 -50 0
-57 -51 0
-58 -52 0
-59 -53 0
-60 -54 0
-55 -43 0
-56 -44 0
-57 -45 0
-58 -46 0
-59 -47 0
-60 -48 0
-55 -37 0
-56 -38 0
-57 -39 0
-58 -40 0
-59 -41 0
-60 -42 0
-55 -25 0
-56 -26 0
-57 -27 0
-58 -28 0
-59 -29 0
-60 -30 0
-55 -19 0
-56 -20 0
-57 -21 0
-58 -22 0
-59 -23 0
-60 -24 0
-55 -13 0
-56 -14 0
-57 -15 0
-58 -16 0
-59 -17 0
-60 -18 0
-61 -103 0
-62 -104 0
-63 -105 0
-64 -106 0
-65 -107 0
-66 -108 0
-61 -91 0
-62 -92 0
-63 -93 0
-64 -94 0
-65 -95 0
-66 -96 0
-61 -121 0
-62 -122 0
-63 -123 0
-64 -124 0
-65 -125 0
-66 -126 0
-61 -151 0
-62 -152 0
-63 -153 0
-64 -154 0
-65 -155 0
-66 -156 0
-61 -181 0
-62 -182 0
-63 -183 0
-64 -184 0
-65 -185 0
-66 -186 0
-61 -67 0
-62 -68 0
-63 -69 0
-64 -70 0
-65 -71 0
-66 -72 0
-61 -97 0
-62 -98 0
-63 -99 0
-64 -100 0
-65 -101 0
-66 -102 0
-61 -133 0
-62 -134 0
-63 -135 0
-64 -136 0
-65 -137 0
-66 -138 0
-61 -169 0
-62 -170 0
-63 -171 0
-64 -172 0
-65 -173 0
-66 -174 0
-61 -205 0
-62 -206 0
-63 -207 0
-64 -208 0
-65 -209 0
-66 -210 0
-61 -55 0
-62 -56 0
-63 -57 0
-64 -58 0
-65 -59 0
-66 -60 0
-61 -49 0
-62 -50 0
-63 -51 0
-64 -52 0
-65 -53 0
-66 -54 0
-61 -43 0
-62 -44 0
-63 -45 0
-64 -46 0
-65 -47 0
-66 -48 0
-61 -37 0
-62 -38 0
-63 -39 0
-64 -40 0
-65 -41 0
-66 -42 0
-61 -31 0
-62 -32 0
-63 -33 0
-64 -34 0
-65 -35 0
-66 -36 0
-61 -25 0
-62 -26 0
-63 -27 0
-64 -28 0
-65 -29 0
-66 -30 0
-61 -19 0
-62 -20 0
-63 -21 0
-64 -22 0
-65 -23 0
-66 -24 0
-67 -97 0
-68 -98 0
-69 -99 0
-70 -100 0
-71 -101 0
-72 -102 0
-67 -127 0
-68 -128 0
-69 -129 0
-70 -130 0
-71 -131 0
-72 -132 0
-67 -157 0
-68 -158 0
-69 -159 0
-70 -160 0
-71 -161 0
-72 -162 0
-67 -187 0
-68 -188 0
-69 -189 0
-70 -190 0
-71 -191 0
-72 -192 0
-67 -103 0
-68 -104 0
-69 -105 0
-70 -106 0
-71 -107 0
-72 -108 0
-67 -139 0
-68 -140 0
-69 -141 0
-70 -142 0
-71 -143 0
-72 -144 0
-67 -175 0
-68 -176 0
-69 -177 0
-70 -178 0
-71 -179 0
-72 -180 0
-67 -211 0
-68 -212 0
-69 -213 0
-70 -214 0
-71 -215 0
-72 -216 0
-67 -61 0
-68 -62 0
-69 -63 0
-70 -64 0
-71 -65 0
-72 -66 0
-67 -55 0
-68 -56 0
-69 -57 0
-70 -58 0
-71 -59 0
-72 -60 0
-67 -49 0
-68 -50 0
-69 -51 0
-70 -52 0
-71 -53 0
-72 -54 0
-67 -43 0
-68 -44 0
-69 -45 0
-70 -46 0
-71 -47 0
-72 -48 0
-67 -37 0
-68 -38 0
-69 -39 0
-70 -40 0
-71 -41 0
-72 -42 0
-67 -31 0
-68 -32 0
-69 -33 0
-70 -34 0
-71 -35 0
-72 -36 0
-67 -25 0
-68 -26 0
-69 -27 0
-70 -28 0
-71 -29 0
-72 -30 0
-73 -115 0
-74 -116 0
-75 -117 0
-76 -118 0
-77 -119 0
-78 -120 0
-73 -157 0
-74 -158 0
-75 -159 0
-76 -160 0
-77 -161 0
-78 -162 0
-73 -199 0
-74 -200 0
-75 -201 0
-76 -202 0
-77 -203 0
-78 -204 0
-73 -79 0
-74 -80 0
-75 -81 0
-76 -82 0
-77 -83 0
-78 -84 0
-73 -85 0
-74 -86 0
-75 -87 0
-76 -88 0
-77 -89 0
-78 -90 0
-73 -91 0
-74 -92 0
-75 -93 0
-76 -94 0
-77 -95 0
-78 -96 0
-73 -97 0
-74 -98 0
-75 -99 0
-76 -100 0
-77 -101 0
-78 -102 0
-73 -103 0
-74 -104 0
-75 -105 0
-76 -106 0
-77 -107 0
-78 -108 0
-73 -109 0
-74 -110 0
-75 -111 0
-76 -112 0
-77 -113 0
-78 -114 0
-73 -145 0
-74 -146 0
-75 -147 0
-76 -148 0
-77 -149 0
-78 -150 0
-73 -181 0
-74 -182 0
-75 -183 0
-76 -184 0
-77 -185 0
-78 -186 0
-73 -43 0
-74 -44 0
-75 -45 0
-76 -46 0
-77 -47 0
-78 -48 0
-73 -37 0
-74 -38 0
-75 -39 0
-76 -40 0
-77 -41 0
-78 -42 0
-73 -13 0
-74 -14 0
-75 -15 0
-76 -16 0
-77 -17 0
-78 -18 0
-73 -1 0
-74 -2 0
-75 -3 0
-76 -4 0
-77 -5 0
-78 -6 0
-79 -121 0
-80 -122 0
-81 -123 0
-82 -124 0
-83 -125 0
-84 -126 0
-79 -163 0
-80 -164 0
-81 -165 0
-82 -166 0
-83 -167 0
-84 -168 0
-79 -205 0
-80 -206 0
-81 -207 0
-82 -208 0
-83 -209 0
-84 -210 0
-79 -109 0
-80 -110 0
-81 -111 0
-82 -112 0
-83 -113 0
-84 -114 0
-79 -85 0
-80 -86 0
-81 -87 0
-82 -88 0
-83 -89 0
-84 -90 0
-79 -91 0
-80 -92 0
-81 -93 0
-82 -94 0
-83 -95 0
-84 -96 0
-79 -97 0
-80 -98 0
-81 -99 0
-82 -100 0
-83 -101 0
-84 -102 0
-79 -103 0
-80 -104 0
-81 -105 0
-82 -106 0
-83 -107 0
-84 -108 0
-79 -115 0
-80 -116 0
-81 -117 0
-82 -118 0
-83 -119 0
-84 -120 0
-79 -151 0
-80 -152 0
-81 -153 0
-82 -154 0
-83 -155 0
-84 -156 0
-79 -187 0
-80 -188 0
-81 -189 0
-82 -190 0
-83 -191 0
-84 -192 0
-79 -73 0
-80 -74 0
-81 -75 0
-82 -76 0
-83 -77 0
-84 -78 0
-79 -49 0
-80 -50 0
-81 -51 0
-82 -52 0
-83 -53 0
-84 -54 0
-79 -43 0
-80 -44 0
-81 -45 0
-82 -46 0
-83 -47 0
-84 -48 0
-79 -37 0
-80 -38 0
-81 -39 0
-82 -40 0
-83 -41 0
-84 -42 0
-79 -19 0
-80 -20 0
-81 -21 0
-82 -22 0
-83 -23 0
-84 -24 0
-79 -7 0
-80 -8 0
-81 -9 0
-82 -10 0
-83 -11 0
-84 -12 0
-85 -127 0
-86 -128 0
-87 -129 0
-88 -130 0
-89 -131 0
-90 -132 0
-85 -169 0
-86 -170 0
-87 -171 0
-88 -172 0
-89 -173 0
-90 -174 0
-85 -211 0
-86 -212 0
-87 -213 0
-88 -214 0
-89 -215 0
-90 -216 0
-85 -115 0
-86 -116 0
-87 -117 0
-88 -118 0
-89 -119 0
-90 -120 0
-85 -145 0
-86 -146 0
-87 -147 0
-88 -148 0
-89 -149 0
-90 -150 0
-85 -91 0
-86 -92 0
-87 -93 0
-88 -94 0
-89 -95 0
-90 -96 0
-85 -97 0
-86 -98 0
-87 -99 0
-88 -100 0
-89 -101 0
-90 -102 0
-85 -103 0
-86 -104 0
-87 -105 0
-88 -106 0
-89 -107 0
-90 -108 0
-85 -121 0
-86 -122 0
-87 -123 0
-88 -124 0
-89 -125 0
-90 -126 0
-85 -157 0
-86 -158 0
-87 -159 0
-88 -160 0
-89 -161 0
-90 -162 0
-85 -193 0
-86 -194 0
-87 -195 0
-88 -196 0
-89 -197 0
-90 -198 0
-85 -79 0
-86 -80 0
-87 -81 0
-88 -82 0
-89 -83 0
-90 -84 0
-85 -73 0
-86 -74 0
-87 -75 0
-88 -76 0
-89 -77 0
-90 -78 0
-85 -55 0
-86 -56 0
-87 -57 0
-88 -58 0
-89 -59 0
-90 -60 0
-85 -49 0
-86 -50 0
-87 -51 0
-88 -52 0
-89 -53 0
-90 -54 0
-85 -43 0
-86 -44 0
-87 -45 0
-88 -46 0
-89 -47 0
-90 -48 0
-85 -25 0
-86 -26 0
-87 -27 0
-88 -28 0
-89 -29 0
-90 -30 0
-85 -13 0
-86 -14 0
-87 -15 0
-88 -16 0
-89 -17 0
-90 -18 0
-85 -1 0
-86 -2 0
-87 -3 0
-88 -4 0
-89 -5 0
-90 -6 0
-91 -133 0
-92 -134 0
-93 -135 0
-94 -136 0
-95 -137 0
-96 -138 0
-91 -175 0
-92 -176 0
-93 -177 0
-94 -178 0
-95 -179 0
-96 -180 0
-91 -121 0
-92 -122 0
-93 -123 0
-94 -124 0
-95 -125 0
-96 -126 0
-91 -151 0
-92 -152 0
-93 -153 0
-94 -154 0
-95 -155 0
-96 -156 0
-91 -181 0
-92 -182 0
-93 -183 0
-94 -184 0
-95 -185 0
-96 -186 0
-91 -97 0
-92 -98 0
-93 -99 0
-94 -100 0
-95 -101 0
-96 -102 0
-91 -103 0
-92 -104 0
-93 -105 0
-94 -106 0
-95 -107 0
-96 -108 0
-91 -127 0
-92 -128 0
-93 -129 0
-94 -130 0
-95 -131 0
-96 -132 0
-91 -163 0
-92 -164 0
-93 -165 0
-94 -166 0
-95 -167 0
-96 -168 0
-91 -199 0
-92 -200 0
-93 -201 0
-94 -202 0
-95 -203 0
-96 -204 0
-91 -85 0
-92 -86 0
-93 -87 0
-94 -88 0
-95 -89 0
-96 -90 0
-91 -79 0
-92 -80 0
-93 -81 0
-94 -82 0
-95 -83 0
-96 -84 0
-91 -73 0
-92 -74 0
-93 -75 0
-94 -76 0
-95 -77 0
-96 -78 0
-91 -61 0
-92 -62 0
-93 -63 0
-94 -64 0
-95 -65 0
-96 -66 0
-91 -55 0
-92 -56 0
-93 -57 0
-94 -58 0
-95 -59 0
-96 -60 0
-91 -49 0
-92 -50 0
-93 -51 0
-94 -52 0
-95 -53 0
-96 -54 0
-91 -31 0
-92 -32 0
-93 -33 0
-94 -34 0
-95 -35 0
-96 -36 0
-91 -19 0
-92 -20 0
-93 -21 0
-94 -22 0
-95 -23 0
-96 -24 0
-91 -7 0
-92 -8 0
-93 -9 0
-94 -10 0
-95 -11 0
-96 -12 0
-97 -139 0
-98 -140 0
-99 -141 0
-100 -142 0
-101 -143 0
-102 -144 0
-97 -127 0
-98 -128 0
-99 -129 0
-100 -130 0
-101 -131 0
-102 -132 0
-97 -157 0
-98 -158 0
-99 -159 0
-100 -160 0
-101 -161 0
-102 -162 0
-97 -187 0
-98 -188 0
-99 -189 0
-100 -190 0
-101 -191 0
-102 -192 0
-97 -103 0
-98 -104 0
-99 -105 0
-100 -106 0
-101 -107 0
-102 -108 0
-97 -133 0
-98 -134 0
-99 -135 0
-100 -136 0
-101 -137 0
-102 -138 0
-97 -169 0
-98 -170 0
-99 -171 0
-100 -172 0
-101 -173 0
-102 -174 0
-97 -205 0
-98 -206 0
-99 -207 0
-100 -208 0
-101 -209 0
-102 -210 0
-97 -91 0
-98 -92 0
-99 -93 0
-100 -94 0
-101 -95 0
-102 -96 0
-97 -85 0
-98 -86 0
-99 -87 0
-100 -88 0
-101 -89 0
-102 -90 0
-97 -79 0
-98 -80 0
-99 -81 0
-100 -82 0
-101 -83 0
-102 -84 0
-97 -73 0
-98 -74 0
-99 -75 0
-100 -76 0
-101 -77 0
-102 -78 0
-97 -67 0
-98 -68 0
-99 -69 0
-100 -70 0
-101 -71 0
-102 -72 0
-97 -61 0
-98 -62 0
-99 -63 0
-100 -64 0
-101 -65 0
-102 -66 0
-97 -55 0
-98 -56 0
-99 -57 0
-100 -58 0
-101 -59 0
-102 -60 0
-97 -25 0
-98 -26 0
-99 -27 0
-100 -28 0
-101 -29 0
-102 -30 0
-97 -13 0
-98 -14 0
-99 -15 0
-100 -16 0
-101 -17 0
-102 -18 0
-103 -133 0
-104 -134 0
-105 -135 0
-106 -136 0
-107 -137 0
-108 -138 0
-103 -163 0
-104 -164 0
-105 -165 0
-106 -166 0
-107 -167 0
-108 -168 0
-103 -193 0
-104 -194 0
-105 -195 0
-106 -196 0
-107 -197 0
-108 -198 0
-103 -139 0
-104 -140 0
-105 -141 0
-106 -142 0
-107 -143 0
-108 -144 0
-103 -175 0
-104 -176 0
-105 -177 0
-106 -178 0
-107 -179 0
-108 -180 0
-103 -211 0
-104 -212 0
-105 -213 0
-106 -214 0
-107 -215 0
-108 -216 0
-103 -97 0
-104 -98 0
-105 -99 0
-106 -100 0
-107 -101 0
-108 -102 0
-103 -91 0
-104 -92 0
-105 -93 0
-106 -94 0
-107 -95 0
-108 -96 0
-103 -85 0
-104 -86 0
-105 -87 0
-106 -88 0
-107 -89 0
-108 -90 0
-103 -79 0
-104 -80 0
-105 -81 0
-106 -82 0
-107 -83 0
-108 -84 0
-103 -73 0
-104 -74 0
-105 -75 0
-106 -76 0
-107 -77 0
-108 -78 0
-103 -67 0
-104 -68 0
-105 -69 0
-106 -70 0
-107 -71 0
-108 -72 0
-103 -61 0
-104 -62 0
-105 -63 0
-106 -64 0
-107 -65 0
-108 -66 0
-103 -31 0
-104 -32 0
-105 -33 0
-106 -34 0
-107 -35 0
-108 -36 0
-103 -19 0
-104 -20 0
-105 -21 0
-106 -22 0
-107 -23 0
-108 -24 0
-109 -151 0
-110 -152 0
-111 -153 0
-112 -154 0
-113 -155 0
-114 -156 0
-109 -193 0
-110 -194 0
-111 -195 0
-112 -196 0
-113 -197 0
-114 -198 0
-109 -115 0
-110 -116 0
-111 -117 0
-112 -118 0
-113 -119 0
-114 -120 0
-109 -121 0
-110 -122 0
-111 -123 0
-112 -124 0
-113 -125 0
-114 -126 0
-109 -127 0
-110 -128 0
-111 -129 0
-112 -130 0
-113 -131 0
-114 -132 0
-109 -133 0
-110 -134 0
-111 -135 0
-112 -136 0
-113 -137 0
-114 -138 0
-109 -139 0
-110 -140 0
-111 -141 0
-112 -142 0
-113 -143 0
-114 -144 0
-109 -145 0
-110 -146 0
-111 -147 0
-112 -148 0
-113 -149 0
-114 -150 0
-109 -181 0
-110 -182 0
-111 -183 0
-112 -184 0
-113 -185 0
-114 -186 0
-109 -79 0
-110 -80 0
-111 -81 0
-112 -82 0
-113 -83 0
-114 -84 0
-109 -73 0
-110 -74 0
-111 -75 0
-112 -76 0
-113 -77 0
-114 -78 0
-109 -49 0
-110 -50 0
-111 -51 0
-112 -52 0
-113 -53 0
-114 -54 0
-109 -37 0
-110 -38 0
-111 -39 0
-112 -40 0
-113 -41 0
-114 -42 0
-109 -19 0
-110 -20 0
-111 -21 0
-112 -22 0
-113 -23 0
-114 -24 0
-109 -1 0
-110 -2 0
-111 -3 0
-112 -4 0
-113 -5 0
-114 -6 0
-115 -157 0
-116 -158 0
-117 -159 0
-118 -160 0
-119 -161 0
-120 -162 0
-115 -199 0
-116 -200 0
-117 -201 0
-118 -202 0
-119 -203 0
-120 -204 0
-115 -145 0
-116 -146 0
-117 -147 0
-118 -148 0
-119 -149 0
-120 -150 0
-115 -121 0
-116 -122 0
-117 -123 0
-118 -124 0
-119 -125 0
-120 -126 0
-115 -127 0
-116 -128 0
-117 -129 0
-118 -130 0
-119 -131 0
-120 -132 0
-115 -133 0
-116 -134 0
-117 -135 0
-118 -136 0
-119 -137 0
-120 -138 0
-115 -139 0
-116 -140 0
-117 -141 0
-118 -142 0
-119 -143 0
-120 -144 0
-115 -151 0
-116 -152 0
-117 -153 0
-118 -154 0
-119 -155 0
-120 -156 0
-115 -187 0
-116 -188 0
-117 -189 0
-118 -190 0
-119 -191 0
-120 -192 0
-115 -109 0
-116 -110 0
-117 -111 0
-118 -112 0
-119 -113 0
-120 -114 0
-115 -85 0
-116 -86 0
-117 -87 0
-118 -88 0
-119 -89 0
-120 -90 0
-115 -79 0
-116 -80 0
-117 -81 0
-118 -82 0
-119 -83 0
-120 -84 0
-115 -73 0
-116 -74 0
-117 -75 0
-118 -76 0
-119 -77 0
-120 -78 0
-115 -55 0
-116 -56 0
-117 -57 0
-118 -58 0
-119 -59 0
-120 -60 0
-115 -43 0
-116 -44 0
-117 -45 0
-118 -46 0
-119 -47 0
-120 -48 0
-115 -25 0
-116 -26 0
-117 -27 0
-118 -28 0
-119 -29 0
-120 -30 0
-115 -7 0
-116 -8 0
-117 -9 0
-118 -10 0
-119 -11 0
-120 -12 0
-121 -163 0
-122 -164 0
-123 -165 0
-124 -166 0
-125 -167 0
-126 -168 0
-121 -205 0
-122 -206 0
-123 -207 0
-124 -208 0
-125 -209 0
-126 -210 0
-121 -151 0
-122 -152 0
-123 -153 0
-124 -154 0
-125 -155 0
-126 -156 0
-121 -181 0
-122 -182 0
-123 -183 0
-124 -184 0
-125 -185 0
-126 -186 0
-121 -127 0
-122 -128 0
-123 -129 0
-124 -130 0
-125 -131 0
-126 -132 0
-121 -133 0
-122 -134 0
-123 -135 0
-124 -136 0
-125 -137 0
-126 -138 0
-121 -139 0
-122 -140 0
-123 -141 0
-124 -142 0
-125 -143 0
-126 -144 0
-121 -157 0
-122 -158 0
-123 -159 0
-124 -160 0
-125 -161 0
-126 -162 0
-121 -193 0
-122 -194 0
-123 -195 0
-124 -196 0
-125 -197 0
-126 -198 0
-121 -115 0
-122 -116 0
-123 -117 0
-124 -118 0
-125 -119 0
-126 -120 0
-121 -109 0
-122 -110 0
-123 -111 0
-124 -112 0
-125 -113 0
-126 -114 0
-121 -91 0
-122 -92 0
-123 -93 0
-124 -94 0
-125 -95 0
-126 -96 0
-121 -85 0
-122 -86 0
-123 -87 0
-124 -88 0
-125 -89 0
-126 -90 0
-121 -79 0
-122 -80 0
-123 -81 0
-124 -82 0
-125 -83 0
-126 -84 0
-121 -61 0
-122 -62 0
-123 -63 0
-124 -64 0
-125 -65 0
-126 -66 0
-121 -49 0
-122 -50 0
-123 -51 0
-124 -52 0
-125 -53 0
-126 -54 0
-121 -37 0
-122 -38 0
-123 -39 0
-124 -40 0
-125 -41 0
-126 -42 0
-121 -31 0
-122 -32 0
-123 -33 0
-124 -34 0
-125 -35 0
-126 -36 0
-121 -13 0
-122 -14 0
-123 -15 0
-124 -16 0
-125 -17 0
-126 -18 0
-127 -169 0
-128 -170 0
-129 -171 0
-130 -172 0
-131 -173 0
-132 -174 0
-127 -211 0
-128 -212 0
-129 -213 0
-130 -214 0
-131 -215 0
-132 -216 0
-127 -157 0
-128 -158 0
-129 -159 0
-130 -160 0
-131 -161 0
-132 -162 0
-127 -187 0
-128 -188 0
-129 -189 0
-130 -190 0
-131 -191 0
-132 -192 0
-127 -133 0
-128 -134 0
-129 -135 0
-130 -136 0
-131 -137 0
-132 -138 0
-127 -139 0
-128 -140 0
-129 -141 0
-130 -142 0
-131 -143 0
-132 -144 0
-127 -163 0
-128 -164 0
-129 -165 0
-130 -166 0
-131 -167 0
-132 -168 0
-127 -199 0
-128 -200 0
-129 -201 0
-130 -202 0
-131 -203 0
-132 -204 0
-127 -121 0
-128 -122 0
-129 -123 0
-130 -124 0
-131 -125 0
-132 -126 0
-127 -115 0
-128 -116 0
-129 -117 0
-130 -118 0
-131 -119 0
-132 -120 0
-127 -109 0
-128 -110 0
-129 -111 0
-130 -112 0
-131 -113 0
-132 -114 0
-127 -97 0
-128 -98 0
-129 -99 0
-130 -100 0
-131 -101 0
-132 -102 0
-127 -91 0
-128 -92 0
-129 -93 0
-130 -94 0
-131 -95 0
-132 -96 0
-127 -85 0
-128 -86 0
-129 -87 0
-130 -88 0
-131 -89 0
-132 -90 0
-127 -67 0
-128 -68 0
-129 -69 0
-130 -70 0
-131 -71 0
-132 -72 0
-127 -55 0
-128 -56 0
-129 -57 0
-130 -58 0
-131 -59 0
-132 -60 0
-127 -43 0
-128 -44 0
-129 -45 0
-130 -46 0
-131 -47 0
-132 -48 0
-127 -19 0
-128 -20 0
-129 -21 0
-130 -22 0
-131 -23 0
-132 -24 0
-127 -1 0
-128 -2 0
-129 -3 0
-130 -4 0
-131 -5 0
-132 -6 0
-133 -175 0
-134 -176 0
-135 -177 0
-136 -178 0
-137 -179 0
-138 -180 0
-133 -163 0
-134 -164 0
-135 -165 0
-136 -166 0
-137 -167 0
-138 -168 0
-133 -193 0
-134 -194 0
-135 -195 0
-136 -196 0
-137 -197 0
-138 -198 0
-133 -139 0
-134 -140 0
-135 -141 0
-136 -142 0
-137 -143 0
-138 -144 0
-133 -169 0
-134 -170 0
-135 -171 0
-136 -172 0
-137 -173 0
-138 -174 0
-133 -205 0
-134 -206 0
-135 -207 0
-136 -208 0
-137 -209 0
-138 -210 0
-133 -127 0
-134 -128 0
-135 -129 0
-136 -130 0
-137 -131 0
-138 -132 0
-133 -121 0
-134 -122 0
-135 -123 0
-136 -124 0
-137 -125 0
-138 -126 0
-133 -115 0
-134 -116 0
-135 -117 0
-136 -118 0
-137 -119 0
-138 -120 0
-133 -109 0
-134 -110 0
-135 -111 0
-136 -112 0
-137 -113 0
-138 -114 0
-133 -103 0
-134 -104 0
-135 -105 0
-136 -106 0
-137 -107 0
-138 -108 0
-133 -97 0
-134 -98 0
-135 -99 0
-136 -100 0
-137 -101 0
-138 -102 0
-133 -91 0
-134 -92 0
-135 -93 0
-136 -94 0
-137 -95 0
-138 -96 0
-133 -61 0
-134 -62 0
-135 -63 0
-136 -64 0
-137 -65 0
-138 -66 0
-133 -49 0
-134 -50 0
-135 -51 0
-136 -52 0
-137 -53 0
-138 -54 0
-133 -25 0
-134 -26 0
-135 -27 0
-136 -28 0
-137 -29 0
-138 -30 0
-133 -7 0
-134 -8 0
-135 -9 0
-136 -10 0
-137 -11 0
-138 -12 0
-139 -169 0
-140 -170 0
-141 -171 0
-142 -172 0
-143 -173 0
-144 -174 0
-139 -199 0
-140 -200 0
-141 -201 0
-142 -202 0
-143 -203 0
-144 -204 0
-139 -175 0
-140 -176 0
-141 -177 0
-142 -178 0
-143 -179 0
-144 -180 0
-139 -211 0
-140 -212 0
-141 -213 0
-142 -214 0
-143 -215 0
-144 -216 0
-139 -133 0
-140 -134 0
-141 -135 0
-142 -136 0
-143 -137 0
-144 -138 0
-139 -127 0
-140 -128 0
-141 -129 0
-142 -130 0
-143 -131 0
-144 -132 0
-139 -121 0
-140 -122 0
-141 -123 0
-142 -124 0
-143 -125 0
-144 -126 0
-139 -115 0
-140 -116 0
-141 -117 0
-142 -118 0
-143 -119 0
-144 -120 0
-139 -109 0
-140 -110 0
-141 -111 0
-142 -112 0
-143 -113 0
-144 -114 0
-139 -103 0
-140 -104 0
-141 -105 0
-142 -106 0
-143 -107 0
-144 -108 0
-139 -97 0
-140 -98 0
-141 -99 0
-142 -100 0
-143 -101 0
-144 -102 0
-139 -67 0
-140 -68 0
-141 -69 0
-142 -70 0
-143 -71 0
-144 -72 0
-139 -55 0
-140 -56 0
-141 -57 0
-142 -58 0
-143 -59 0
-144 -60 0
-139 -31 0
-140 -32 0
-141 -33 0
-142 -34 0
-143 -35 0
-144 -36 0
-139 -13 0
-140 -14 0
-141 -15 0
-142 -16 0
-143 -17 0
-144 -18 0
-145 -187 0
-146 -188 0
-147 -189 0
-148 -190 0
-149 -191 0
-150 -192 0
-145 -151 0
-146 -152 0
-147 -153 0
-148 -154 0
-149 -155 0
-150 -156 0
-145 -157 0
-146 -158 0
-147 -159 0
-148 -160 0
-149 -161 0
-150 -162 0
-145 -163 0
-146 -164 0
-147 -165 0
-148 -166 0
-149 -167 0
-150 -168 0
-145 -169 0
-146 -170 0
-147 -171 0
-148 -172 0
-149 -173 0
-150 -174 0
-145 -175 0
-146 -176 0
-147 -177 0
-148 -178 0
-149 -179 0
-150 -180 0
-145 -181 0
-146 -182 0
-147 -183 0
-148 -184 0
-149 -185 0
-150 -186 0
-145 -115 0
-146 -116 0
-147 -117 0
-148 -118 0
-149 -119 0
-150 -120 0
-145 -109 0
-146 -110 0
-147 -111 0
-148 -112 0
-149 -113 0
-150 -114 0
-145 -85 0
-146 -86 0
-147 -87 0
-148 -88 0
-149 -89 0
-150 -90 0
-145 -73 0
-146 -74 0
-147 -75 0
-148 -76 0
-149 -77 0
-150 -78 0
-145 -55 0
-146 -56 0
-147 -57 0
-148 -58 0
-149 -59 0
-150 -60 0
-145 -37 0
-146 -38 0
-147 -39 0
-148 -40 0
-149 -41 0
-150 -42 0
-145 -25 0
-146 -26 0
-147 -27 0
-148 -28 0
-149 -29 0
-150 -30 0
-145 -1 0
-146 -2 0
-147 -3 0
-148 -4 0
-149 -5 0
-150 -6 0
-151 -193 0
-152 -194 0
-153 -195 0
-154 -196 0
-155 -197 0
-156 -198 0
-151 -181 0
-152 -182 0
-153 -183 0
-154 -184 0
-155 -185 0
-156 -186 0
-151 -157 0
-152 -158 0
-153 -159 0
-154 -160 0
-155 -161 0
-156 -162 0
-151 -163 0
-152 -164 0
-153 -165 0
-154 -166 0
-155 -167 0
-156 -168 0
-151 -169 0
-152 -170 0
-153 -171 0
-154 -172 0
-155 -173 0
-156 -174 0
-151 -175 0
-152 -176 0
-153 -177 0
-154 -178 0
-155 -179 0
-156 -180 0
-151 -187 0
-152 -188 0
-153 -189 0
-154 -190 0
-155 -191 0
-156 -192 0
-151 -145 0
-152 -146 0
-153 -147 0
-154 -148 0
-155 -149 0
-156 -150 0
-151 -121 0
-152 -122 0
-153 -123 0
-154 -124 0
-155 -125 0
-156 -126 0
-151 -115 0
-152 -116 0
-153 -117 0
-154 -118 0
-155 -119 0
-156 -120 0
-151 -109 0
-152 -110 0
-153 -111 0
-154 -112 0
-155 -113 0
-156 -114 0
-151 -91 0
-152 -92 0
-153 -93 0
-154 -94 0
-155 -95 0
-156 -96 0
-151 -79 0
-152 -80 0
-153 -81 0
-154 -82 0
-155 -83 0
-156 -84 0
-151 -61 0
-152 -62 0
-153 -63 0
-154 -64 0
-155 -65 0
-156 -66 0
-151 -43 0
-152 -44 0
-153 -45 0
-154 -46 0
-155 -47 0
-156 -48 0
-151 -31 0
-152 -32 0
-153 -33 0
-154 -34 0
-155 -35 0
-156 -36 0
-151 -7 0
-152 -8 0
-153 -9 0
-154 -10 0
-155 -11 0
-156 -12 0
-157 -199 0
-158 -200 0
-159 -201 0
-160 -202 0
-161 -203 0
-162 -204 0
-157 -187 0
-158 -188 0
-159 -189 0
-160 -190 0
-161 -191 0
-162 -192 0
-157 -163 0
-158 -164 0
-159 -165 0
-160 -166 0
-161 -167 0
-162 -168 0
-157 -169 0
-158 -170 0
-159 -171 0
-160 -172 0
-161 -173 0
-162 -174 0
-157 -175 0
-158 -176 0
-159 -177 0
-160 -178 0
-161 -179 0
-162 -180 0
-157 -193 0
-158 -194 0
-159 -195 0
-160 -196 0
-161 -197 0
-162 -198 0
-157 -151 0
-158 -152 0
-159 -153 0
-160 -154 0
-161 -155 0
-162 -156 0
-157 -145 0
-158 -146 0
-159 -147 0
-160 -148 0
-161 -149 0
-162 -150 0
-157 -127 0
-158 -128 0
-159 -129 0
-160 -130 0
-161 -131 0
-162 -132 0
-157 -121 0
-158 -122 0
-159 -123 0
-160 -124 0
-161 -125 0
-162 -126 0
-157 -115 0
-158 -116 0
-159 -117 0
-160 -118 0
-161 -119 0
-162 -120 0
-157 -97 0
-158 -98 0
-159 -99 0
-160 -100 0
-161 -101 0
-162 -102 0
-157 -85 0
-158 -86 0
-159 -87 0
-160 -88 0
-161 -89 0
-162 -90 0
-157 -73 0
-158 -74 0
-159 -75 0
-160 -76 0
-161 -77 0
-162 -78 0
-157 -67 0
-158 -68 0
-159 -69 0
-160 -70 0
-161 -71 0
-162 -72 0
-157 -49 0
-158 -50 0
-159 -51 0
-160 -52 0
-161 -53 0
-162 -54 0
-157 -13 0
-158 -14 0
-159 -15 0
-160 -16 0
-161 -17 0
-162 -18 0
-163 -205 0
-164 -206 0
-165 -207 0
-166 -208 0
-167 -209 0
-168 -210 0
-163 -193 0
-164 -194 0
-165 -195 0
-166 -196 0
-167 -197 0
-168 -198 0
-163 -169 0
-164 -170 0
-165 -171 0
-166 -172 0
-167 -173 0
-168 -174 0
-163 -175 0
-164 -176 0
-165 -177 0
-166 -178 0
-167 -179 0
-168 -180 0
-163 -199 0
-164 -200 0
-165 -201 0
-166 -202 0
-167 -203 0
-168 -204 0
-163 -157 0
-164 -158 0
-165 -159 0
-166 -160 0
-167 -161 0
-168 -162 0
-163 -151 0
-164 -152 0
-165 -153 0
-166 -154 0
-167 -155 0
-168 -156 0
-163 -145 0
-164 -146 0
-165 -147 0
-166 -148 0
-167 -149 0
-168 -150 0
-163 -133 0
-164 -134 0
-165 -135 0
-166 -136 0
-167 -137 0
-168 -138 0
-163 -127 0
-164 -128 0
-165 -129 0
-166 -130 0
-167 -131 0
-168 -132 0
-163 -121 0
-164 -122 0
-165 -123 0
-166 -124 0
-167 -125 0
-168 -126 0
-163 -103 0
-164 -104 0
-165 -105 0
-166 -106 0
-167 -107 0
-168 -108 0
-163 -91 0
-164 -92 0
-165 -93 0
-166 -94 0
-167 -95 0
-168 -96 0
-163 -79 0
-164 -80 0
-165 -81 0
-166 -82 0
-167 -83 0
-168 -84 0
-163 -55 0
-164 -56 0
-165 -57 0
-166 -58 0
-167 -59 0
-168 -60 0
-163 -37 0
-164 -38 0
-165 -39 0
-166 -40 0
-167 -41 0
-168 -42 0
-163 -19 0
-164 -20 0
-165 -21 0
-166 -22 0
-167 -23 0
-168 -24 0
-169 -211 0
-170 -212 0
-171 -213 0
-172 -214 0
-173 -215 0
-174 -216 0
-169 -199 0
-170 -200 0
-171 -201 0
-172 -202 0
-173 -203 0
-174 -204 0
-169 -175 0
-170 -176 0
-171 -177 0
-172 -178 0
-173 -179 0
-174 -180 0
-169 -205 0
-170 -206 0
-171 -207 0
-172 -208 0
-173 -209 0
-174 -210 0
-169 -163 0
-170 -164 0
-171 -165 0
-172 -166 0
-173 -167 0
-174 -168 0
-169 -157 0
-170 -158 0
-171 -159 0
-172 -160 0
-173 -161 0
-174 -162 0
-169 -151 0
-170 -152 0
-171 -153 0
-172 -154 0
-173 -155 0
-174 -156 0
-169 -145 0
-170 -146 0
-171 -147 0
-172 -148 0
-173 -149 0
-174 -150 0
-169 -139 0
-170 -140 0
-171 -141 0
-172 -142 0
-173 -143 0
-174 -144 0
-169 -133 0
-170 -134 0
-171 -135 0
-172 -136 0
-173 -137 0
-174 -138 0
-169 -127 0
-170 -128 0
-171 -129 0
-172 -130 0
-173 -131 0
-174 -132 0
-169 -97 0
-170 -98 0
-171 -99 0
-172 -100 0
-173 -101 0
-174 -102 0
-169 -85 0
-170 -86 0
-171 -87 0
-172 -88 0
-173 -89 0
-174 -90 0
-169 -61 0
-170 -62 0
-171 -63 0
-172 -64 0
-173 -65 0
-174 -66 0
-169 -43 0
-170 -44 0
-171 -45 0
-172 -46 0
-173 -47 0
-174 -48 0
-169 -25 0
-170 -26 0
-171 -27 0
-172 -28 0
-173 -29 0
-174 -30 0
-169 -1 0
-170 -2 0
-171 -3 0
-172 -4 0
-173 -5 0
-174 -6 0
-175 -205 0
-176 -206 0
-177 -207 0
-178 -208 0
-179 -209 0
-180 -210 0
-175 -211 0
-176 -212 0
-177 -213 0
-178 -214 0
-179 -215 0
-180 -216 0
-175 -169 0
-176 -170 0
-177 -171 0
-178 -172 0
-179 -173 0
-180 -174 0
-175 -163 0
-176 -164 0
-177 -165 0
-178 -166 0
-179 -167 0
-180 -168 0
-175 -157 0
-176 -158 0
-177 -159 0
-178 -160 0
-179 -161 0
-180 -162 0
-175 -151 0
-176 -152 0
-177 -153 0
-178 -154 0
-179 -155 0
-180 -156 0
-175 -145 0
-176 -146 0
-177 -147 0
-178 -148 0
-179 -149 0
-180 -150 0
-175 -139 0
-176 -140 0
-177 -141 0
-178 -142 0
-179 -143 0
-180 -144 0
-175 -133 0
-176 -134 0
-177 -135 0
-178 -136 0
-179 -137 0
-180 -138 0
-175 -103 0
-176 -104 0
-177 -105 0
-178 -106 0
-179 -107 0
-180 -108 0
-175 -91 0
-176 -92 0
-177 -93 0
-178 -94 0
-179 -95 0
-180 -96 0
-175 -67 0
-176 -68 0
-177 -69 0
-178 -70 0
-179 -71 0
-180 -72 0
-175 -49 0
-176 -50 0
-177 -51 0
-178 -52 0
-179 -53 0
-180 -54 0
-175 -31 0
-176 -32 0
-177 -33 0
-178 -34 0
-179 -35 0
-180 -36 0
-175 -7 0
-176 -8 0
-177 -9 0
-178 -10 0
-179 -11 0
-180 -12 0
-181 -187 0
-182 -188 0
-183 -189 0
-184 -190 0
-185 -191 0
-186 -192 0
-181 -193 0
-182 -194 0
-183 -195 0
-184 -196 0
-185 -197 0
-186 -198 0
-181 -199 0
-182 -200 0
-183 -201 0
-184 -202 0
-185 -203 0
-186 -204 0
-181 -205 0
-182 -206 0
-183 -207 0
-184 -208 0
-185 -209 0
-186 -210 0
-181 -211 0
-182 -212 0
-183 -213 0
-184 -214 0
-185 -215 0
-186 -216 0
-181 -151 0
-182 -152 0
-183 -153 0
-184 -154 0
-185 -155 0
-186 -156 0
-181 -145 0
-182 -146 0
-183 -147 0
-184 -148 0
-185 -149 0
-186 -150 0
-181 -121 0
-182 -122 0
-183 -123 0
-184 -124 0
-185 -125 0
-186 -126 0
-181 -109 0
-182 -110 0
-183 -111 0
-184 -112 0
-185 -113 0
-186 -114 0
-181 -91 0
-182 -92 0
-183 -93 0
-184 -94 0
-185 -95 0
-186 -96 0
-181 -73 0
-182 -74 0
-183 -75 0
-184 -76 0
-185 -77 0
-186 -78 0
-181 -61 0
-182 -62 0
-183 -63 0
-184 -64 0
-185 -65 0
-186 -66 0
-181 -37 0
-182 -38 0
-183 -39 0
-184 -40 0
-185 -41 0
-186 -42 0
-181 -31 0
-182 -32 0
-183 -33 0
-184 -34 0
-185 -35 0
-186 -36 0
-181 -1 0
-182 -2 0
-183 -3 0
-184 -4 0
-185 -5 0
-186 -6 0
-187 -193 0
-188 -194 0
-189 -195 0
-190 -196 0
-191 -197 0
-192 -198 0
-187 -199 0
-188 -200 0
-189 -201 0
-190 -202 0
-191 -203 0
-192 -204 0
-187 -205 0
-188 -206 0
-189 -207 0
-190 -208 0
-191 -209 0
-192 -210 0
-187 -211 0
-188 -212 0
-189 -213 0
-190 -214 0
-191 -215 0
-192 -216 0
-187 -181 0
-188 -182 0
-189 -183 0
-190 -184 0
-191 -185 0
-192 -186 0
-187 -157 0
-188 -158 0
-189 -159 0
-190 -160 0
-191 -161 0
-192 -162 0
-187 -151 0
-188 -152 0
-189 -153 0
-190 -154 0
-191 -155 0
-192 -156 0
-187 -145 0
-188 -146 0
-189 -147 0
-190 -148 0
-191 -149 0
-192 -150 0
-187 -127 0
-188 -128 0
-189 -129 0
-190 -130 0
-191 -131 0
-192 -132 0
-187 -115 0
-188 -116 0
-189 -117 0
-190 -118 0
-191 -119 0
-192 -120 0
-187 -97 0
-188 -98 0
-189 -99 0
-190 -100 0
-191 -101 0
-192 -102 0
-187 -79 0
-188 -80 0
-189 -81 0
-190 -82 0
-191 -83 0
-192 -84 0
-187 -67 0
-188 -68 0
-189 -69 0
-190 -70 0
-191 -71 0
-192 -72 0
-187 -43 0
-188 -44 0
-189 -45 0
-190 -46 0
-191 -47 0
-192 -48 0
-187 -7 0
-188 -8 0
-189 -9 0
-190 -10 0
-191 -11 0
-192 -12 0
-193 -199 0
-194 -200 0
-195 -201 0
-196 -202 0
-197 -203 0
-198 -204 0
-193 -205 0
-194 -206 0
-195 -207 0
-196 -208 0
-197 -209 0
-198 -210 0
-193 -211 0
-194 -212 0
-195 -213 0
-196 -214 0
-197 -215 0
-198 -216 0
-193 -187 0
-194 -188 0
-195 -189 0
-196 -190 0
-197 -191 0
-198 -192 0
-193 -181 0
-194 -182 0
-195 -183 0
-196 -184 0
-197 -185 0
-198 -186 0
-193 -163 0
-194 -164 0
-195 -165 0
-196 -166 0
-197 -167 0
-198 -168 0
-193 -157 0
-194 -158 0
-195 -159 0
-196 -160 0
-197 -161 0
-198 -162 0
-193 -151 0
-194 -152 0
-195 -153 0
-196 -154 0
-197 -155 0
-198 -156 0
-193 -133 0
-194 -134 0
-195 -135 0
-196 -136 0
-197 -137 0
-198 -138 0
-193 -121 0
-194 -122 0
-195 -123 0
-196 -124 0
-197 -125 0
-198 -126 0
-193 -109 0
-194 -110 0
-195 -111 0
-196 -112 0
-197 -113 0
-198 -114 0
-193 -103 0
-194 -104 0
-195 -105 0
-196 -106 0
-197 -107 0
-198 -108 0
-193 -85 0
-194 -86 0
-195 -87 0
-196 -88 0
-197 -89 0
-198 -90 0
-193 -49 0
-194 -50 0
-195 -51 0
-196 -52 0
-197 -53 0
-198 -54 0
-193 -13 0
-194 -14 0
-195 -15 0
-196 -16 0
-197 -17 0
-198 -18 0
-199 -205 0
-200 -206 0
-201 -207 0
-202 -208 0
-203 -209 0
-204 -210 0
-199 -211 0
-200 -212 0
-201 -213 0
-202 -214 0
-203 -215 0
-204 -216 0
-199 -193 0
-200 -194 0
-201 -195 0
-202 -196 0
-203 -197 0
-204 -198 0
-199 -187 0
-200 -188 0
-201 -189 0
-202 -190 0
-203 -191 0
-204 -192 0
-199 -181 0
-200 -182 0
-201 -183 0
-202 -184 0
-203 -185 0
-204 -186 0
-199 -169 0
-200 -170 0
-201 -171 0
-202 -172 0
-203 -173 0
-204 -174 0
-199 -163 0
-200 -164 0
-201 -165 0
-202 -166 0
-203 -167 0
-204 -168 0
-199 -157 0
-200 -158 0
-201 -159 0
-202 -160 0
-203 -161 0
-204 -162 0
-199 -139 0
-200 -140 0
-201 -141 0
-202 -142 0
-203 -143 0
-204 -144 0
-199 -127 0
-200 -128 0
-201 -129 0
-202 -130 0
-203 -131 0
-204 -132 0
-199 -115 0
-200 -116 0
-201 -117 0
-202 -118 0
-203 -119 0
-204 -120 0
-199 -91 0
-200 -92 0
-201 -93 0
-202 -94 0
-203 -95 0
-204 -96 0
-199 -73 0
-200 -74 0
-201 -75 0
-202 -76 0
-203 -77 0
-204 -78 0
-199 -55 0
-200 -56 0
-201 -57 0
-202 -58 0
-203 -59 0
-204 -60 0
-199 -19 0
-200 -20 0
-201 -21 0
-202 -22 0
-203 -23 0
-204 -24 0
-205 -211 0
-206 -212 0
-207 -213 0
-208 -214 0
-209 -215 0
-210 -216 0
-205 -199 0
-206 -200 0
-207 -201 0
-208 -202 0
-209 -203 0
-210 -204 0
-205 -193 0
-206 -194 0
-207 -195 0
-208 -196 0
-209 -197 0
-210 -198 0
-205 -187 0
-206 -188 0
-207 -189 0
-208 -190 0
-209 -191 0
-210 -192 0
-205 -181 0
-206 -182 0
-207 -183 0
-208 -184 0
-209 -185 0
-210 -186 0
-205 -175 0
-206 -176 0
-207 -177 0
-208 -178 0
-209 -179 0
-210 -180 0
-205 -169 0
-206 -170 0
-207 -171 0
-208 -172 0
-209 -173 0
-210 -174 0
-205 -163 0
-206 -164 0
-207 -165 0
-208 -166 0
-209 -167 0
-210 -168 0
-205 -133 0
-206 -134 0
-207 -135 0
-208 -136 0
-209 -137 0
-210 -138 0
-205 -121 0
-206 -122 0
-207 -123 0
-208 -124 0
-209 -125 0
-210 -126 0
-205 -97 0
-206 -98 0
-207 -99 0
-208 -100 0
-209 -101 0
-210 -102 0
-205 -79 0
-206 -80 0
-207 -81 0
-208 -82 0
-209 -83 0
-210 -84 0
-205 -61 0
-206 -62 0
-207 -63 0
-208 -64 0
-209 -65 0
-210 -66 0
-205 -37 0
-206 -38 0
-207 -39 0
-208 -40 0
-209 -41 0
-210 -42 0
-205 -25 0
-206 -26 0
-207 -27 0
-208 -28 0
-209 -29 0
-210 -30 0
-211 -205 0
-212 -206 0
-213 -207 0
-214 -208 0
-215 -209 0
-216 -210 0
-211 -199 0
-212 -200 0
-213 -201 0
-214 -202 0
-215 -203 0
-216 -204 0
-211 -193 0
-212 -194 0
-213 -195 0
-214 -196 0
-215 -197 0
-216 -198 0
-211 -187 0
-212 -188 0
-213 -189 0
-214 -190 0
-215 -191 0
-216 -192 0
-211 -181 0
-212 -182 0
-213 -183 0
-214 -184 0
-215 -185 0
-216 -186 0
-211 -175 0
-212 -176 0
-213 -177 0
-214 -178 0
-215 -179 0
-216 -180 0
-211 -169 0
-212 -170 0
-213 -171 0
-214 -172 0
-215 -173 0
-216 -174 0
-211 -139 0
-212 -140 0
-213 -141 0
-214 -142 0
-215 -143 0
-216 -144 0
-211 -127 0
-212 -128 0
-213 -129 0
-214 -130 0
-215 -131 0
-216 -132 0
-211 -103 0
-212 -104 0
-213 -105 0
-214 -106 0
-215 -107 0
-216 -108 0
-211 -85 0
-212 -86 0
-213 -87 0
-214 -88 0
-215 -89 0
-216 -90 0
-211 -67 0
-212 -68 0
-213 -69 0
-214 -70 0
-215 -71 0
-216 -72 0
-211 -43 0
-212 -44 0
-213 -45 0
-214 -46 0
-215 -47 0
-216 -48 0
-211 -31 0
-212 -32 0
-213 -33 0
-214 -34 0
-215 -35 0
-216 -36 0
-211 -1 0
-212 -2 0
-213 -3 0
-214 -4 0
-215 -5 0
-216 -6 0
